NAME : random84.710.tour
COMMENT : Length = 710
COMMENT : Found by LKH [Keld Helsgaun] Tue May  7 16:07:47 2024
TYPE : TOUR
DIMENSION : 84
TOUR_SECTION
1
36
24
70
4
65
37
42
55
78
5
33
20
43
50
17
81
38
6
62
80
28
58
49
69
8
48
47
63
84
27
25
61
41
16
75
14
66
11
23
59
52
10
15
3
68
73
22
7
29
51
77
45
31
44
79
56
9
35
53
32
60
82
54
13
74
40
12
34
18
21
30
71
26
46
2
57
67
64
39
19
76
83
72
-1
EOF
